
Gurobi 13.0.2 (win64) logging started Thu Jul 23 07:56:47 2026

Set parameter LogFile to value "E:\codes\ExactEBRP\results\gf_cplex_equivalent_gurobi_replica_round28\runs\stage3__V12_M1__c3_replica__300s\external\native_logs\R.1.0.0.0.1.1.1.1.0.1_terminal_mip.gurobi.log"
Gurobi Optimizer version 13.0.2 build v13.0.2rc1 (win64 - Windows 10.0 (19045.2))

CPU model: 12th Gen Intel(R) Core(TM) i7-12700KF, instruction set [SSE2|AVX|AVX2]
Thread count: 12 physical cores, 20 logical processors, using up to 1 threads

Non-default parameters:
TimeLimit  189.3565672
MIPGap  0
MIPGapAbs  0
LogToConsole  0
Threads  1

Optimize a model with 6225 rows, 648 columns and 59365 nonzeros (Min)
Model fingerprint: 0x89760a91
Model has 13 linear objective coefficients
Variable types: 347 continuous, 301 integer (253 binary)
Coefficient statistics:
  Matrix range     [2e-03, 1e+05]
  Objective range  [2e-03, 1e+00]
  Bounds range     [1e-01, 8e+01]
  RHS range        [3e-02, 1e+06]

Presolve removed 743 rows and 27 columns
Presolve time: 0.13s
Presolved: 5482 rows, 621 columns, 58757 nonzeros
Variable types: 321 continuous, 300 integer (252 binary)

Root relaxation: objective 3.228854e-01, 1025 iterations, 0.06 seconds (0.18 work units)

    Nodes    |    Current Node    |     Objective Bounds      |     Work
 Expl Unexpl |  Obj  Depth IntInf | Incumbent    BestBd   Gap | It/Node Time

     0     0    0.32289    0  109          -    0.32289      -     -    0s
     0     0    0.32761    0   98          -    0.32761      -     -    0s
     0     0    0.32807    0  100          -    0.32807      -     -    0s
     0     0    0.33175    0   99          -    0.33175      -     -    0s
     0     0    0.33329    0  100          -    0.33329      -     -    0s
     0     0    0.33415    0  114          -    0.33415      -     -    1s
     0     0    0.33425    0  112          -    0.33425      -     -    1s
     0     0    0.33524    0  112          -    0.33524      -     -    1s
     0     0    0.33557    0  107          -    0.33557      -     -    1s
     0     0    0.33584    0  107          -    0.33584      -     -    1s
     0     0    0.33684    0  106          -    0.33684      -     -    1s
     0     0    0.33684    0  111          -    0.33684      -     -    1s
     0     0    0.33684    0  111          -    0.33684      -     -    1s
     0     0    0.33684    0  111          -    0.33684      -     -    2s
     0     0    0.33684    0  111          -    0.33684      -     -    2s
     0     0    0.33684    0  109          -    0.33684      -     -    2s
     0     2    0.33684    0  109          -    0.33684      -     -    2s

Cutting planes:
  Learned: 3
  Gomory: 1
  Cover: 11
  Implied bound: 35
  Clique: 22
  MIR: 62
  StrongCG: 3
  Flow cover: 38
  GUB cover: 1
  Zero half: 1
  Network: 3
  RLT: 8
  Relax-and-lift: 9
  BQP: 4
  PSD: 2

Explored 3 nodes (2765 simplex iterations) in 2.95 seconds (3.94 work units)
Thread count was 1 (of 20 available processors)

Solution count 0

Model is infeasible
Best objective -, best bound -, gap -

User-callback calls 1868, time in user-callback 0.00 sec
